NAME /Users/henri/Research/solvers/instances/idol-instances/robust/collection/cbp_Subramanyam_et_al_2020/CapBud_N20_10/models/uncertain_technology_matrix/
ROWS
 N  OBJ
 L  capacity
 L  c_2795
 L  c_2796
 L  c_2797
 L  c_2798
 L  c_2799
 L  c_2800
 L  c_2801
 L  c_2802
 L  c_2803
 L  c_2804
 L  c_2805
 L  c_2806
 L  c_2807
 L  c_2808
 L  c_2809
 L  c_2810
 L  c_2811
 L  c_2812
 L  c_2813
 L  c_2814
COLUMNS
    MARKER    'MARKER'                 'INTORG'
    x_0        OBJ        -3.01866
    x_0        c_2795     1
    x_0        capacity   0.603731
    x_1        OBJ        -5.31512
    x_1        c_2796     1
    x_1        capacity   1.06302
    x_2        OBJ        -3.21948
    x_2        c_2797     1
    x_2        capacity   0.643896
    x_3        OBJ        -1.87265
    x_3        c_2798     1
    x_3        capacity   0.374531
    x_4        OBJ        -6.58624
    x_4        c_2799     1
    x_4        capacity   1.31725
    x_5        OBJ        -7.24355
    x_5        c_2800     1
    x_5        capacity   1.44871
    x_6        OBJ        -6.52412
    x_6        c_2801     1
    x_6        capacity   1.30482
    x_7        OBJ        -0.306794
    x_7        c_2802     1
    x_7        capacity   0.0613588
    x_8        OBJ        -9.15933
    x_8        c_2803     1
    x_8        capacity   1.83187
    x_9        OBJ        -3.62231
    x_9        c_2804     1
    x_9        capacity   0.724462
    x_10       OBJ        -6.1451
    x_10       c_2805     1
    x_10       capacity   1.22902
    x_11       OBJ        -8.15395
    x_11       c_2806     1
    x_11       capacity   1.63079
    x_12       OBJ        -5.55464
    x_12       c_2807     1
    x_12       capacity   1.11093
    x_13       OBJ        -8.493
    x_13       c_2808     1
    x_13       capacity   1.6986
    x_14       OBJ        -4.06783
    x_14       c_2809     1
    x_14       capacity   0.813565
    x_15       OBJ        -3.55233
    x_15       c_2810     1
    x_15       capacity   0.710465
    x_16       OBJ        -6.08848
    x_16       c_2811     1
    x_16       capacity   1.2177
    x_17       OBJ        -3.41516
    x_17       c_2812     1
    x_17       capacity   0.683031
    x_18       OBJ        -2.02176
    x_18       c_2813     1
    x_18       capacity   0.404351
    x_19       OBJ        -2.99945
    x_19       c_2814     1
    x_19       capacity   0.599889
    y_0        OBJ        -2.41492
    y_0        c_2795     1
    y_0        capacity   0.603731
    y_1        OBJ        -4.25209
    y_1        c_2796     1
    y_1        capacity   1.06302
    y_2        OBJ        -2.57558
    y_2        c_2797     1
    y_2        capacity   0.643896
    y_3        OBJ        -1.49812
    y_3        c_2798     1
    y_3        capacity   0.374531
    y_4        OBJ        -5.269
    y_4        c_2799     1
    y_4        capacity   1.31725
    y_5        OBJ        -5.79484
    y_5        c_2800     1
    y_5        capacity   1.44871
    y_6        OBJ        -5.21929
    y_6        c_2801     1
    y_6        capacity   1.30482
    y_7        OBJ        -0.245435
    y_7        c_2802     1
    y_7        capacity   0.0613588
    y_8        OBJ        -7.32746
    y_8        c_2803     1
    y_8        capacity   1.83187
    y_9        OBJ        -2.89785
    y_9        c_2804     1
    y_9        capacity   0.724462
    y_10       OBJ        -4.91608
    y_10       c_2805     1
    y_10       capacity   1.22902
    y_11       OBJ        -6.52316
    y_11       c_2806     1
    y_11       capacity   1.63079
    y_12       OBJ        -4.44371
    y_12       c_2807     1
    y_12       capacity   1.11093
    y_13       OBJ        -6.7944
    y_13       c_2808     1
    y_13       capacity   1.6986
    y_14       OBJ        -3.25426
    y_14       c_2809     1
    y_14       capacity   0.813565
    y_15       OBJ        -2.84186
    y_15       c_2810     1
    y_15       capacity   0.710465
    y_16       OBJ        -4.87079
    y_16       c_2811     1
    y_16       capacity   1.2177
    y_17       OBJ        -2.73213
    y_17       c_2812     1
    y_17       capacity   0.683031
    y_18       OBJ        -1.6174
    y_18       c_2813     1
    y_18       capacity   0.404351
    y_19       OBJ        -2.39956
    y_19       c_2814     1
    y_19       capacity   0.599889
    MARKER    'MARKER'                 'INTEND'
RHS
    RHS       capacity   48.68
    RHS       c_2795     1
    RHS       c_2796     1
    RHS       c_2797     1
    RHS       c_2798     1
    RHS       c_2799     1
    RHS       c_2800     1
    RHS       c_2801     1
    RHS       c_2802     1
    RHS       c_2803     1
    RHS       c_2804     1
    RHS       c_2805     1
    RHS       c_2806     1
    RHS       c_2807     1
    RHS       c_2808     1
    RHS       c_2809     1
    RHS       c_2810     1
    RHS       c_2811     1
    RHS       c_2812     1
    RHS       c_2813     1
    RHS       c_2814     1
BOUNDS
 LI BND       x_0        0
 UI BND       x_0        1
 LI BND       x_1        0
 UI BND       x_1        1
 LI BND       x_2        0
 UI BND       x_2        1
 LI BND       x_3        0
 UI BND       x_3        1
 LI BND       x_4        0
 UI BND       x_4        1
 LI BND       x_5        0
 UI BND       x_5        1
 LI BND       x_6        0
 UI BND       x_6        1
 LI BND       x_7        0
 UI BND       x_7        1
 LI BND       x_8        0
 UI BND       x_8        1
 LI BND       x_9        0
 UI BND       x_9        1
 LI BND       x_10       0
 UI BND       x_10       1
 LI BND       x_11       0
 UI BND       x_11       1
 LI BND       x_12       0
 UI BND       x_12       1
 LI BND       x_13       0
 UI BND       x_13       1
 LI BND       x_14       0
 UI BND       x_14       1
 LI BND       x_15       0
 UI BND       x_15       1
 LI BND       x_16       0
 UI BND       x_16       1
 LI BND       x_17       0
 UI BND       x_17       1
 LI BND       x_18       0
 UI BND       x_18       1
 LI BND       x_19       0
 UI BND       x_19       1
 LI BND       y_0        0
 UI BND       y_0        1
 LI BND       y_1        0
 UI BND       y_1        1
 LI BND       y_2        0
 UI BND       y_2        1
 LI BND       y_3        0
 UI BND       y_3        1
 LI BND       y_4        0
 UI BND       y_4        1
 LI BND       y_5        0
 UI BND       y_5        1
 LI BND       y_6        0
 UI BND       y_6        1
 LI BND       y_7        0
 UI BND       y_7        1
 LI BND       y_8        0
 UI BND       y_8        1
 LI BND       y_9        0
 UI BND       y_9        1
 LI BND       y_10       0
 UI BND       y_10       1
 LI BND       y_11       0
 UI BND       y_11       1
 LI BND       y_12       0
 UI BND       y_12       1
 LI BND       y_13       0
 UI BND       y_13       1
 LI BND       y_14       0
 UI BND       y_14       1
 LI BND       y_15       0
 UI BND       y_15       1
 LI BND       y_16       0
 UI BND       y_16       1
 LI BND       y_17       0
 UI BND       y_17       1
 LI BND       y_18       0
 UI BND       y_18       1
 LI BND       y_19       0
 UI BND       y_19       1
ENDATA
